
--- Job new1.gms Start 02/28/24 18:55:02 46.1.0 0f6c6ca6 WEX-WEI x86 64bit/MS Windows
--- Applying:
    C:\GAMS\46\gmsprmNT.txt
--- GAMS Parameters defined
    Input C:\Users\LENOVO\Desktop\new1.gms
    PageSize 0
    ScrDir C:\Users\LENOVO\Desktop\225a\
    SysDir C:\GAMS\46\
    LogOption 3
    ErrMsg 1
    ErrorLog 99
    IDE 1
    LstTitleLeftAligned 1
Licensee: GAMS Demo, for EULA and demo limitations see   G240131/0001CB-GEN
          https://www.gams.com/latest/docs/UG%5FLicense.html         DC0000
          C:\GAMS\46\gamslice.txt
          Demo license for demonstration and instructional purposes only
Processor information: 1 socket(s), 8 core(s), and 16 thread(s) available
GAMS 46.1.0   Copyright (C) 1987-2024 GAMS Development. All rights reserved
--- Starting compilation
--- new1.gms(52) 3 Mb
--- Starting execution: elapsed 0:00:00.024
--- Generating MIP model joyas
--- new1.gms(52) 4 Mb
---   7 rows  4 columns  23 non-zeroes
--- Range statistics (absolute non-zero finite values)
--- RHS       [min, max] : [ 5.000E+01, 3.100E+02] - Zero values observed as well
--- Bound     [min, max] : [        NA,        NA]
--- Matrix    [min, max] : [ 1.000E+00, 3.600E+03]
--- Executing CPLEX (Solvelink=2): elapsed 0:00:00.042

IBM ILOG CPLEX   46.1.0 0f6c6ca6 Feb 17, 2024          WEI x86 64bit/MS Window

*** This solver runs with a demo license. No commercial use.
--- GMO setup time: 0.00s
--- GMO memory 0.50 Mb (peak 0.50 Mb)
--- Dictionary memory 0.00 Mb
--- Cplex 22.1.1.0 link memory 0.00 Mb (peak 0.00 Mb)
--- Starting Cplex

Version identifier: 22.1.1.0 | 2022-11-27 | 9160aff4d
CPXPARAM_Advance                                 0
CPXPARAM_Simplex_Display                         2
CPXPARAM_MIP_Display                             4
CPXPARAM_MIP_Pool_Capacity                       0
CPXPARAM_MIP_Tolerances_AbsMIPGap                0
Tried aggregator 1 time.
LP Presolve eliminated 3 rows and 2 columns.
Reduced LP has 4 rows, 3 columns, and 12 nonzeros.
Presolve time = 0.00 sec. (0.01 ticks)

Iteration      Dual Objective            In Variable           Out Variable
     1 sI         2099.999998              X(aretes)               R3 slack
     2 sI         1071.428569            X(collares)               R1 slack
     3 sI          537.735847               R3 slack               R2 slack

--- LP status (2): unbounded.
--- Cplex Time: 0.00sec (det. 0.01 ticks)


Model has an unbounded ray
CPLEX Error  1265: Dual unbounded solution required.
--- Could not determine which row or columns may have causedthe problem to be unbounded

--- Reading solution for model joyas
*** Status: Normal completion
--- Job new1.gms Stop 02/28/24 18:55:03 elapsed 0:00:00.258
